157 50 5 66 165 124 169 53 200 61 
132 161 2 113 114 37 29 65 43 24 110 
73 30 35 80 195 160 182 164 141 91 197 
1 115 48 175 32 90 88 111 10 
72 93 199 135 121 39 9 70 190 
120 92 16 162 171 122 156 97 52 75 
155 44 143 34 98 136 189 23 22 127 74 45 
196 145 137 68 176 31 181 183 102 77 108 
149 81 18 94 12 19 178 177 174 83 198 
106 85 14 146 79 11 172 148 119 
117 166 193 151 125 56 33 129 82 
7 67 3 21 69 170 192 128 
168 163 100 62 194 142 159 47 59 
87 153 54 38 84 118 101 154 28 27 
140 57 173 109 25 180 186 179 107 
112 20 152 60 104 95 138 78 105 
4 188 184 133 64 130 116 42 
63 26 123 139 187 185 103 40 
55 150 36 86 131 134 126 49 
46 15 71 89 6 58 191 
147 76 17 
158 51 8 99 167 
41 144 
13 96 

